% File represents an instance of a Composite Structure problem to be solved by a CP framework
% Created on 2025-03-26 10:41:16.523
T = 50;
n = 9;
m = 12;
edges = [(1, 2),
(4, 5),
(8, 7),
(3, 2),
(6, 5),
(8, 9),
(1, 4),
(4, 7),
(5, 2),
(5, 8),
(6, 3),
(6, 9)];
counts = [|2, 24, 2, 22,
|2, 20, 2, 20,
|2, 20, 2, 22,
|2, 24, 2, 20,
|2, 22, 2, 20,
|2, 22, 2, 22,
|2, 20, 2, 18,
|2, 22, 2, 18,
|2, 20, 2, 18|];
